549
1 0 5 517 1 500 1 501 1 502 1 503 1
2 0 5 241 1 75 1 17 1 72 1 183 1
3 0 5 308 1 421 1 10 1 82 1 460 1
4 0 5 92 1 63 1 208 1 175 1 214 1
5 0 5 50 1 176 1 64 1 152 1 119 1
6 0 5 16 1 204 1 140 1 57 1 298 1
7 0 5 244 1 245 1 72 1 25 1 198 1
8 0 5 39 1 277 1 254 1 326 1 450 1
9 0 5 186 1 100 1 128 1 53 1 93 1
10 0 5 414 1 3 1 359 1 213 1 180 1
11 0 5 276 1 330 1 342 1 489 1 349 1
12 0 5 68 1 306 1 48 1 368 1 222 1
13 0 5 219 1 295 1 257 1 206 1 458 1
14 0 5 400 1 374 1 278 1 87 1 367 1
15 0 5 345 1 461 1 159 1 172 1 387 1
16 0 5 6 1 298 1 140 1 204 1 102 1
17 0 5 75 1 72 1 2 1 62 1 245 1
18 0 5 232 1 470 1 415 1 34 1 509 1
19 0 5 107 1 173 1 83 1 370 1 471 1
20 0 5 190 1 109 1 94 1 181 1 108 1
21 0 5 164 1 202 1 138 1 218 1 31 1
22 0 5 39 1 326 1 254 1 202 1 224 1
23 0 5 84 1 334 1 443 1 442 1 305 1
24 0 5 168 1 120 1 44 1 139 1 116 1
25 0 5 198 1 244 1 62 1 7 1 122 1
26 0 5 80 1 144 1 231 1 60 1 98 1
27 0 5 487 1 287 1 413 1 281 1 475 1
28 0 5 211 1 379 1 194 1 429 1 89 1
29 0 5 200 1 151 1 41 1 410 1 437 1
30 0 5 70 1 49 1 409 1 105 1 165 1
31 0 5 164 1 51 1 138 1 21 1 175 1
32 0 5 156 1 102 1 40 1 253 1 352 1
33 0 5 362 1 333 1 296 1 354 1 446 1
34 0 5 470 1 124 1 232 1 415 1 76 1
35 0 5 36 1 475 1 47 1 508 1 507 1
36 0 5 35 1 47 1 133 1 408 1 419 1
37 0 5 282 1 430 1 323 1 502 1 516 1
38 0 5 236 1 112 1 99 1 69 1 66 1
39 0 5 22 1 326 1 8 1 254 1 224 1
40 0 5 298 1 253 1 156 1 32 1 102 1
41 0 5 410 1 200 1 29 1 151 1 313 1
42 0 5 325 1 452 1 255 1 249 1 283 1
43 0 5 468 1 406 1 203 1 106 1 404 1
44 0 5 233 1 120 1 24 1 220 1 139 1
45 0 5 63 1 313 1 189 1 200 1 104 1
46 0 5 162 1 65 1 117 1 240 1 158 1
47 0 5 408 1 36 1 391 1 35 1 27 1
48 0 5 479 1 12 1 306 1 197 1 113 1
49 0 5 30 1 143 1 409 1 165 1 105 1
50 0 5 141 1 5 1 119 1 245 1 2 1
51 0 5 31 1 138 1 175 1 164 1 63 1
52 0 5 86 1 101 1 95 1 173 1 369 1
53 0 5 93 1 128 1 186 1 222 1 9 1
54 0 5 99 1 264 1 92 1 4 1 214 1
55 0 5 448 1 435 1 263 1 358 1 351 1
56 0 5 301 1 159 1 167 1 394 1 387 1
57 0 5 239 1 131 1 137 1 91 1 227 1
58 0 5 103 1 161 1 96 1 208 1 130 1
59 0 5 221 1 161 1 225 1 85 1 157 1
60 0 5 110 1 65 1 144 1 231 1 26 1
61 0 5 227 1 237 1 146 1 129 1 162 1
62 0 5 185 1 25 1 229 1 122 1 244 1
63 0 5 218 1 4 1 45 1 175 1 138 1
64 0 5 5 1 176 1 245 1 152 1 141 1
65 0 5 46 1 60 1 110 1 117 1 144 1
66 0 5 232 1 112 1 422 1 18 1 415 1
67 0 5 384 1 230 1 216 1 426 1 348 1
68 0 5 12 1 368 1 222 1 93 1 53 1
69 0 5 253 1 480 1 236 1 32 1 38 1
70 0 5 30 1 74 1 49 1 165 1 143 1
71 0 5 418 1 351 1 174 1 344 1 155 1
72 0 5 17 1 245 1 7 1 244 1 141 1
73 0 5 234 1 81 1 167 1 345 1 184 1
74 0 5 70 1 115 1 122 1 165 1 181 1
75 0 5 17 1 136 1 132 1 241 1 2 1
76 0 5 124 1 470 1 34 1 509 1 510 1
77 0 5 242 1 106 1 349 1 276 1 404 1
78 0 5 97 1 397 1 163 1 463 1 142 1
79 0 5 300 1 382 1 285 1 330 1 369 1
80 0 5 26 1 183 1 2 1 98 1 144 1
81 0 5 237 1 234 1 73 1 345 1 167 1
82 0 5 341 1 360 1 460 1 308 1 3 1
83 0 5 471 1 257 1 19 1 107 1 219 1
84 0 5 442 1 23 1 443 1 334 1 305 1
85 0 5 225 1 290 1 161 1 150 1 59 1
86 0 5 95 1 52 1 173 1 257 1 369 1
87 0 5 431 1 400 1 378 1 437 1 278 1
88 0 5 125 1 491 1 340 1 197 1 394 1
89 0 5 114 1 238 1 143 1 211 1 28 1
90 0 5 464 1 197 1 340 1 394 1 334 1
91 0 5 137 1 244 1 245 1 246 1 64 1
92 0 5 4 1 214 1 264 1 63 1 99 1
93 0 5 53 1 128 1 306 1 186 1 222 1
94 0 5 109 1 132 1 20 1 108 1 190 1
95 0 5 86 1 173 1 257 1 52 1 369 1
96 0 5 130 1 199 1 58 1 103 1 193 1
97 0 5 78 1 205 1 215 1 147 1 271 1
98 0 5 169 1 183 1 132 1 2 1 75 1
99 0 5 264 1 214 1 54 1 189 1 38 1
100 0 5 150 1 9 1 161 1 113 1 306 1
101 0 5 376 1 52 1 311 1 382 1 369 1
102 0 5 145 1 156 1 32 1 221 1 40 1
103 0 5 208 1 58 1 193 1 199 1 96 1
104 0 5 224 1 410 1 313 1 423 1 45 1
105 0 5 455 1 235 1 238 1 188 1 309 1
106 0 5 203 1 77 1 349 1 404 1 43 1
107 0 5 19 1 363 1 369 1 370 1 83 1
108 0 5 109 1 229 1 122 1 185 1 20 1
109 0 5 94 1 108 1 20 1 229 1 190 1
110 0 5 60 1 144 1 65 1 240 1 46 1
111 0 5 347 1 423 1 367 1 160 1 278 1
112 0 5 134 1 151 1 154 1 118 1 38 1
113 0 5 178 1 306 1 100 1 479 1 12 1
114 0 5 89 1 429 1 238 1 409 1 235 1
115 0 5 74 1 181 1 122 1 108 1 165 1
116 0 5 220 1 121 1 24 1 168 1 202 1
117 0 5 46 1 216 1 65 1 321 1 380 1
118 0 5 196 1 449 1 10 1 112 1 329 1
119 0 5 176 1 5 1 240 1 50 1 158 1
120 0 5 44 1 24 1 233 1 139 1 168 1
121 0 5 202 1 116 1 220 1 226 1 168 1
122 0 5 165 1 108 1 74 1 115 1 379 1
123 0 5 329 1 374 1 284 1 359 1 378 1
124 0 5 34 1 76 1 209 1 477 1 474 1
125 0 5 88 1 491 1 272 1 197 1 340 1
126 0 5 272 1 197 1 479 1 178 1 125 1
127 0 5 447 1 217 1 230 1 380 1 361 1
128 0 5 93 1 53 1 186 1 9 1 306 1
129 0 5 158 1 146 1 256 1 61 1 237 1
130 0 5 96 1 222 1 199 1 58 1 9 1
131 0 5 239 1 57 1 256 1 152 1 91 1
132 0 5 94 1 98 1 75 1 20 1 169 1
133 0 5 419 1 302 1 496 1 36 1 282 1
134 0 5 112 1 151 1 445 1 154 1 400 1
135 0 5 485 1 258 1 465 1 447 1 488 1
136 0 5 185 1 75 1 108 1 132 1 62 1
137 0 5 91 1 246 1 57 1 166 1 212 1
138 0 5 51 1 218 1 21 1 31 1 164 1
139 0 5 193 1 168 1 24 1 120 1 199 1
140 0 5 298 1 148 1 253 1 16 1 6 1
141 0 5 50 1 245 1 72 1 17 1 5 1
142 0 5 207 1 163 1 380 1 271 1 78 1
143 0 5 49 1 165 1 89 1 238 1 409 1
144 0 5 110 1 240 1 26 1 60 1 119 1
145 0 5 102 1 221 1 179 1 204 1 184 1
146 0 5 129 1 237 1 61 1 158 1 461 1
147 0 5 231 1 271 1 205 1 97 1 60 1
148 0 5 253 1 140 1 456 1 480 1 298 1
149 0 5 474 1 477 1 124 1 372 1 76 1
150 0 5 100 1 161 1 85 1 184 1 290 1
151 0 5 29 1 112 1 134 1 200 1 41 1
152 0 5 239 1 256 1 5 1 131 1 176 1
153 0 5 293 1 458 1 360 1 206 1 341 1
154 0 5 112 1 196 1 134 1 118 1 123 1
155 0 5 344 1 267 1 350 1 302 1 71 1
156 0 5 32 1 102 1 40 1 352 1 157 1
157 0 5 161 1 59 1 221 1 156 1 92 1
158 0 5 129 1 256 1 119 1 240 1 61 1
159 0 5 345 1 15 1 81 1 167 1 56 1
160 0 5 423 1 200 1 111 1 437 1 104 1
161 0 5 150 1 85 1 58 1 59 1 157 1
162 0 5 240 1 46 1 61 1 158 1 65 1
163 0 5 397 1 142 1 78 1 207 1 488 1
164 0 5 31 1 21 1 138 1 202 1 51 1
165 0 5 211 1 143 1 122 1 409 1 49 1
166 0 5 212 1 137 1 246 1 6 1 91 1
167 0 5 345 1 81 1 73 1 159 1 56 1
168 0 5 24 1 139 1 116 1 121 1 164 1
169 0 5 241 1 98 1 132 1 75 1 2 1
170 0 5 242 1 311 1 101 1 79 1 376 1
171 0 5 474 1 490 1 477 1 457 1 372 1
172 0 5 348 1 384 1 15 1 426 1 461 1
173 0 5 19 1 95 1 257 1 285 1 86 1
174 0 5 476 1 331 1 370 1 71 1 351 1
175 0 5 63 1 193 1 4 1 51 1 138 1
176 0 5 119 1 5 1 64 1 152 1 256 1
177 0 5 407 1 393 1 405 1 195 1 289 1
178 0 5 113 1 479 1 100 1 126 1 272 1
179 0 5 221 1 184 1 145 1 225 1 290 1
180 0 5 10 1 449 1 329 1 118 1 213 1
181 0 5 115 1 190 1 20 1 108 1 122 1
182 0 5 229 1 379 1 122 1 280 1 198 1
183 0 5 80 1 98 1 2 1 119 1 169 1
184 0 5 290 1 179 1 150 1 234 1 145 1
185 0 5 136 1 62 1 108 1 229 1 75 1
186 0 5 9 1 128 1 53 1 93 1 306 1
187 0 5 450 1 322 1 326 1 423 1 224 1
188 0 5 235 1 261 1 270 1 429 1 266 1
189 0 5 264 1 45 1 99 1 4 1 41 1
190 0 5 20 1 181 1 108 1 109 1 94 1
191 0 5 262 1 346 1 243 1 392 1 412 1
192 0 5 441 1 469 1 338 1 425 1 392 1
193 0 5 139 1 199 1 175 1 103 1 58 1
194 0 5 379 1 28 1 201 1 336 1 266 1
195 0 5 393 1 401 1 439 1 177 1 289 1
196 0 5 118 1 449 1 154 1 112 1 180 1
197 0 5 90 1 126 1 272 1 464 1 479 1
198 0 5 25 1 280 1 244 1 246 1 320 1
199 0 5 96 1 193 1 130 1 58 1 103 1
200 0 5 29 1 160 1 41 1 151 1 45 1
201 0 5 466 1 467 1 247 1 280 1 379 1
202 0 5 121 1 21 1 164 1 22 1 116 1
203 0 5 106 1 404 1 43 1 468 1 77 1
204 0 5 234 1 6 1 16 1 145 1 221 1
205 0 5 97 1 215 1 271 1 147 1 463 1
206 0 5 458 1 219 1 153 1 13 1 295 1
207 0 5 142 1 271 1 380 1 163 1 488 1
208 0 5 103 1 58 1 4 1 92 1 161 1
209 0 5 517 1 500 1 501 1 502 1 503 1
210 0 5 284 1 303 1 473 1 327 1 378 1
211 0 5 165 1 28 1 89 1 409 1 122 1
212 0 5 166 1 137 1 91 1 265 1 246 1
213 0 5 10 1 359 1 421 1 267 1 118 1
214 0 5 92 1 99 1 264 1 4 1 157 1
215 0 5 463 1 97 1 205 1 78 1 271 1
216 0 5 321 1 380 1 230 1 117 1 67 1
217 0 5 127 1 447 1 258 1 380 1 488 1
218 0 5 63 1 138 1 313 1 21 1 104 1
219 0 5 13 1 206 1 153 1 83 1 257 1
220 0 5 116 1 233 1 44 1 121 1 24 1
221 0 5 145 1 59 1 179 1 102 1 157 1
222 0 5 368 1 130 1 53 1 93 1 12 1
223 0 5 226 1 254 1 8 1 220 1 451 1
224 0 5 104 1 326 1 450 1 22 1 313 1
225 0 5 85 1 290 1 59 1 179 1 221 1
226 0 5 223 1 254 1 121 1 8 1 22 1
227 0 5 61 1 239 1 237 1 57 1 131 1
228 0 5 390 1 396 1 394 1 387 1 459 1
229 0 5 182 1 108 1 62 1 185 1 122 1
230 0 5 127 1 426 1 380 1 216 1 321 1
231 0 5 147 1 26 1 144 1 271 1 60 1
232 0 5 34 1 18 1 415 1 470 1 209 1
233 0 5 44 1 120 1 220 1 24 1 116 1
234 0 5 204 1 73 1 81 1 184 1 6 1
235 0 5 429 1 336 1 188 1 409 1 266 1
236 0 5 38 1 232 1 415 1 69 1 18 1
237 0 5 146 1 61 1 227 1 81 1 129 1
238 0 5 309 1 89 1 114 1 143 1 455 1
239 0 5 152 1 131 1 57 1 227 1 256 1
240 0 5 162 1 144 1 119 1 158 1 110 1
241 0 5 169 1 2 1 75 1 17 1 132 1
242 0 5 170 1 77 1 311 1 330 1 276 1
243 0 5 398 1 259 1 412 1 191 1 389 1
244 0 5 25 1 245 1 7 1 198 1 91 1
245 0 5 72 1 244 1 141 1 7 1 91 1
246 0 5 137 1 198 1 91 1 244 1 320 1
247 0 5 434 1 486 1 509 1 508 1 507 1
248 0 5 443 1 465 1 361 1 316 1 420 1
249 0 5 416 1 325 1 452 1 42 1 255 1
250 0 5 482 1 273 1 338 1 427 1 275 1
251 0 5 399 1 304 1 299 1 310 1 413 1
252 0 5 462 1 288 1 292 1 444 1 356 1
253 0 5 148 1 40 1 140 1 298 1 69 1
254 0 5 223 1 226 1 8 1 22 1 39 1
255 0 5 438 1 417 1 42 1 325 1 416 1
256 0 5 152 1 129 1 158 1 239 1 131 1
257 0 5 173 1 83 1 95 1 13 1 107 1
258 0 5 488 1 135 1 217 1 447 1 485 1
259 0 5 398 1 243 1 318 1 389 1 295 1
260 0 5 370 1 263 1 375 1 369 1 331 1
261 0 5 314 1 188 1 270 1 335 1 383 1
262 0 5 191 1 346 1 392 1 412 1 243 1
263 0 5 476 1 260 1 351 1 55 1 370 1
264 0 5 189 1 99 1 214 1 92 1 54 1
265 0 5 328 1 279 1 212 1 148 1 456 1
266 0 5 270 1 235 1 336 1 261 1 429 1
267 0 5 344 1 155 1 353 1 213 1 302 1
268 0 5 428 1 364 1 440 1 275 1 366 1
269 0 5 403 1 459 1 305 1 334 1 390 1
270 0 5 266 1 188 1 235 1 261 1 336 1
271 0 5 463 1 147 1 207 1 205 1 142 1
272 0 5 126 1 197 1 125 1 178 1 88 1
273 0 5 427 1 454 1 250 1 338 1 472 1
274 0 5 375 1 369 1 377 1 373 1 453 1
275 0 5 355 1 478 1 339 1 250 1 268 1
276 0 5 11 1 342 1 349 1 330 1 77 1
277 0 5 451 1 324 1 8 1 450 1 417 1
278 0 5 367 1 431 1 378 1 400 1 366 1
279 0 5 320 1 328 1 466 1 490 1 434 1
280 0 5 379 1 198 1 320 1 466 1 201 1
281 0 5 27 1 299 1 413 1 297 1 310 1
282 0 5 323 1 430 1 37 1 502 1 503 1
283 0 5 469 1 452 1 307 1 192 1 42 1
284 0 5 210 1 484 1 123 1 327 1 303 1
285 0 5 382 1 79 1 173 1 369 1 376 1
286 0 5 291 1 433 1 405 1 446 1 177 1
287 0 5 487 1 297 1 27 1 299 1 413 1
288 0 5 444 1 252 1 462 1 402 1 303 1
289 0 5 393 1 177 1 195 1 433 1 439 1
290 0 5 85 1 184 1 225 1 150 1 179 1
291 0 5 433 1 393 1 286 1 195 1 177 1
292 0 5 356 1 472 1 252 1 333 1 462 1
293 0 5 153 1 341 1 458 1 460 1 360 1
294 0 5 388 1 401 1 460 1 318 1 341 1
295 0 5 13 1 388 1 458 1 318 1 401 1
296 0 5 446 1 33 1 286 1 402 1 252 1
297 0 5 299 1 287 1 489 1 487 1 453 1
298 0 5 40 1 16 1 140 1 253 1 148 1
299 0 5 413 1 297 1 251 1 287 1 281 1
300 0 5 79 1 369 1 330 1 382 1 285 1
301 0 5 394 1 387 1 56 1 491 1 411 1
302 0 5 133 1 155 1 350 1 391 1 408 1
303 0 5 210 1 284 1 462 1 446 1 288 1
304 0 5 251 1 399 1 310 1 299 1 413 1
305 0 5 403 1 269 1 23 1 334 1 459 1
306 0 5 12 1 113 1 93 1 186 1 100 1
307 0 5 481 1 469 1 283 1 312 1 192 1
308 0 5 3 1 460 1 360 1 341 1 82 1
309 0 5 455 1 238 1 105 1 114 1 235 1
310 0 5 304 1 358 1 435 1 413 1 251 1
311 0 5 170 1 376 1 101 1 242 1 285 1
312 0 5 436 1 322 1 417 1 307 1 481 1
313 0 5 218 1 45 1 104 1 410 1 41 1
314 0 5 335 1 323 1 383 1 261 1 188 1
315 0 5 339 1 366 1 381 1 355 1 364 1
316 0 5 319 1 420 1 465 1 361 1 248 1
317 0 5 371 1 390 1 387 1 426 1 396 1
318 0 5 483 1 401 1 389 1 259 1 294 1
319 0 5 316 1 420 1 361 1 465 1 447 1
320 0 5 328 1 280 1 279 1 198 1 466 1
321 0 5 216 1 380 1 230 1 117 1 67 1
322 0 5 312 1 417 1 436 1 450 1 187 1
323 0 5 282 1 430 1 314 1 383 1 500 1
324 0 5 451 1 277 1 416 1 438 1 8 1
325 0 5 42 1 249 1 255 1 452 1 416 1
326 0 5 224 1 39 1 450 1 8 1 22 1
327 0 5 402 1 405 1 444 1 284 1 210 1
328 0 5 265 1 320 1 279 1 424 1 466 1
329 0 5 123 1 180 1 118 1 284 1 484 1
330 0 5 11 1 489 1 300 1 274 1 453 1
331 0 5 363 1 174 1 370 1 471 1 71 1
332 0 5 353 1 209 1 302 1 449 1 133 1
333 0 5 356 1 33 1 472 1 292 1 362 1
334 0 5 23 1 442 1 269 1 464 1 305 1
335 0 5 314 1 383 1 516 1 502 1 504 1
336 0 5 429 1 235 1 266 1 28 1 409 1
337 0 5 411 1 491 1 301 1 125 1 88 1
338 0 5 343 1 427 1 425 1 250 1 273 1
339 0 5 315 1 275 1 366 1 355 1 381 1
340 0 5 90 1 394 1 464 1 334 1 88 1
341 0 5 360 1 293 1 460 1 82 1 153 1
342 0 5 349 1 276 1 11 1 404 1 489 1
343 0 5 338 1 425 1 478 1 441 1 427 1
344 0 5 267 1 351 1 155 1 71 1 448 1
345 0 5 159 1 15 1 167 1 81 1 237 1
346 0 5 412 1 262 1 191 1 392 1 243 1
347 0 5 423 1 111 1 367 1 278 1 160 1
348 0 5 172 1 384 1 426 1 15 1 67 1
349 0 5 404 1 342 1 276 1 468 1 77 1
350 0 5 358 1 155 1 302 1 391 1 435 1
351 0 5 448 1 71 1 476 1 263 1 344 1
352 0 5 32 1 156 1 385 1 40 1 69 1
353 0 5 267 1 344 1 71 1 332 1 213 1
354 0 5 362 1 33 1 273 1 427 1 356 1
355 0 5 275 1 478 1 481 1 339 1 381 1
356 0 5 472 1 333 1 292 1 252 1 354 1
357 0 5 414 1 359 1 405 1 407 1 329 1
358 0 5 435 1 310 1 350 1 55 1 448 1
359 0 5 10 1 357 1 414 1 484 1 213 1
360 0 5 341 1 82 1 308 1 153 1 460 1
361 0 5 420 1 447 1 319 1 127 1 248 1
362 0 5 354 1 33 1 333 1 356 1 273 1
363 0 5 331 1 471 1 107 1 370 1 174 1
364 0 5 366 1 428 1 268 1 395 1 339 1
365 0 5 247 1 434 1 386 1 466 1 201 1
366 0 5 364 1 278 1 378 1 315 1 339 1
367 0 5 278 1 347 1 111 1 431 1 400 1
368 0 5 222 1 68 1 130 1 12 1 53 1
369 0 5 375 1 300 1 274 1 107 1 285 1
370 0 5 260 1 476 1 331 1 174 1 107 1
371 0 5 317 1 459 1 390 1 316 1 269 1
372 0 5 171 1 477 1 149 1 474 1 480 1
373 0 5 453 1 375 1 274 1 297 1 489 1
374 0 5 378 1 123 1 14 1 87 1 400 1
375 0 5 373 1 369 1 274 1 260 1 399 1
376 0 5 311 1 101 1 285 1 382 1 173 1
377 0 5 489 1 453 1 373 1 487 1 297 1
378 0 5 374 1 87 1 431 1 278 1 366 1
379 0 5 280 1 28 1 194 1 182 1 211 1
380 0 5 207 1 321 1 217 1 127 1 230 1
381 0 5 436 1 366 1 355 1 315 1 339 1
382 0 5 285 1 79 1 300 1 369 1 376 1
383 0 5 314 1 335 1 323 1 502 1 501 1
384 0 5 348 1 426 1 67 1 172 1 230 1
385 0 5 477 1 432 1 480 1 76 1 474 1
386 0 5 517 1 500 1 501 1 502 1 503 1
387 0 5 396 1 390 1 317 1 301 1 228 1
388 0 5 294 1 401 1 460 1 295 1 458 1
389 0 5 483 1 412 1 318 1 243 1 439 1
390 0 5 228 1 317 1 396 1 387 1 459 1
391 0 5 408 1 47 1 350 1 302 1 36 1
392 0 5 441 1 262 1 346 1 192 1 191 1
393 0 5 195 1 289 1 291 1 177 1 433 1
394 0 5 340 1 301 1 228 1 387 1 390 1
395 0 5 473 1 454 1 440 1 428 1 366 1
396 0 5 387 1 390 1 228 1 317 1 459 1
397 0 5 163 1 488 1 78 1 142 1 207 1
398 0 5 259 1 243 1 318 1 295 1 389 1
399 0 5 251 1 304 1 299 1 310 1 375 1
400 0 5 87 1 278 1 14 1 431 1 367 1
401 0 5 388 1 294 1 195 1 460 1 318 1
402 0 5 327 1 444 1 288 1 405 1 286 1
403 0 5 305 1 269 1 334 1 459 1 23 1
404 0 5 349 1 468 1 203 1 342 1 276 1
405 0 5 407 1 177 1 327 1 357 1 286 1
406 0 5 468 1 43 1 35 1 203 1 404 1
407 0 5 405 1 414 1 177 1 357 1 286 1
408 0 5 47 1 391 1 36 1 35 1 302 1
409 0 5 429 1 235 1 114 1 89 1 336 1
410 0 5 104 1 41 1 313 1 151 1 200 1
411 0 5 337 1 491 1 301 1 100 1 178 1
412 0 5 346 1 389 1 243 1 191 1 262 1
413 0 5 299 1 27 1 287 1 487 1 310 1
414 0 5 407 1 10 1 357 1 359 1 421 1
415 0 5 232 1 34 1 470 1 477 1 236 1
416 0 5 249 1 438 1 324 1 325 1 451 1
417 0 5 255 1 322 1 312 1 438 1 277 1
418 0 5 71 1 350 1 155 1 448 1 351 1
419 0 5 133 1 282 1 36 1 506 1 541 1
420 0 5 319 1 361 1 316 1 465 1 248 1
421 0 5 3 1 213 1 414 1 353 1 180 1
422 0 5 507 1 509 1 510 1 511 1 512 1
423 0 5 160 1 347 1 111 1 104 1 367 1
424 0 5 279 1 328 1 320 1 490 1 265 1
425 0 5 441 1 343 1 338 1 478 1 427 1
426 0 5 384 1 348 1 230 1 317 1 172 1
427 0 5 273 1 338 1 250 1 343 1 425 1
428 0 5 268 1 364 1 440 1 395 1 366 1
429 0 5 114 1 336 1 235 1 409 1 28 1
430 0 5 282 1 323 1 37 1 1 1 504 1
431 0 5 87 1 278 1 378 1 367 1 400 1
432 0 5 477 1 474 1 124 1 76 1 470 1
433 0 5 291 1 286 1 289 1 439 1 177 1
434 0 5 247 1 486 1 490 1 548 1 386 1
435 0 5 358 1 55 1 448 1 310 1 350 1
436 0 5 312 1 381 1 322 1 355 1 481 1
437 0 5 445 1 431 1 87 1 160 1 400 1
438 0 5 255 1 416 1 417 1 324 1 325 1
439 0 5 483 1 195 1 289 1 433 1 291 1
440 0 5 428 1 482 1 268 1 454 1 395 1
441 0 5 425 1 192 1 392 1 343 1 338 1
442 0 5 84 1 464 1 334 1 23 1 443 1
443 0 5 248 1 84 1 23 1 442 1 465 1
444 0 5 288 1 402 1 327 1 462 1 252 1
445 0 5 437 1 151 1 431 1 87 1 400 1
446 0 5 296 1 286 1 303 1 33 1 402 1
447 0 5 127 1 217 1 361 1 258 1 135 1
448 0 5 351 1 55 1 435 1 263 1 344 1
449 0 5 196 1 118 1 180 1 422 1 302 1
450 0 5 187 1 326 1 8 1 224 1 277 1
451 0 5 324 1 277 1 8 1 416 1 226 1
452 0 5 283 1 42 1 249 1 325 1 469 1
453 0 5 489 1 373 1 274 1 330 1 297 1
454 0 5 395 1 273 1 440 1 482 1 462 1
455 0 5 309 1 105 1 238 1 114 1 235 1
456 0 5 148 1 372 1 253 1 490 1 265 1
457 0 5 124 1 474 1 477 1 171 1 480 1
458 0 5 206 1 293 1 153 1 460 1 388 1
459 0 5 269 1 371 1 390 1 403 1 305 1
460 0 5 341 1 293 1 308 1 82 1 401 1
461 0 5 15 1 345 1 172 1 146 1 384 1
462 0 5 252 1 473 1 288 1 303 1 444 1
463 0 5 215 1 271 1 205 1 78 1 147 1
464 0 5 90 1 442 1 340 1 334 1 197 1
465 0 5 485 1 135 1 248 1 361 1 443 1
466 0 5 201 1 467 1 320 1 280 1 279 1
467 0 5 201 1 466 1 486 1 247 1 434 1
468 0 5 43 1 404 1 406 1 349 1 203 1
469 0 5 283 1 192 1 307 1 452 1 481 1
470 0 5 34 1 124 1 232 1 76 1 477 1
471 0 5 83 1 363 1 331 1 19 1 107 1
472 0 5 356 1 292 1 333 1 273 1 252 1
473 0 5 395 1 210 1 462 1 252 1 288 1
474 0 5 477 1 149 1 504 1 505 1 506 1
475 0 5 487 1 27 1 35 1 281 1 287 1
476 0 5 174 1 263 1 351 1 370 1 71 1
477 0 5 474 1 149 1 432 1 516 1 504 1
478 0 5 355 1 343 1 481 1 275 1 425 1
479 0 5 48 1 178 1 126 1 197 1 113 1
480 0 5 69 1 148 1 372 1 124 1 432 1
481 0 5 307 1 478 1 355 1 469 1 192 1
482 0 5 440 1 454 1 250 1 275 1 427 1
483 0 5 439 1 389 1 318 1 195 1 33 1
484 0 5 284 1 359 1 10 1 329 1 407 1
485 0 5 465 1 135 1 488 1 258 1 443 1
486 0 5 434 1 247 1 467 1 466 1 279 1
487 0 5 287 1 475 1 27 1 297 1 413 1
488 0 5 258 1 397 1 485 1 217 1 135 1
489 0 5 453 1 377 1 330 1 297 1 373 1
490 0 5 434 1 171 1 386 1 474 1 209 1
491 0 5 88 1 125 1 337 1 411 1 394 1
492 0 5 517 1 500 1 501 1 502 1 503 1
493 0 5 517 1 500 1 501 1 502 1 503 1
494 0 5 517 1 500 1 501 1 502 1 503 1
495 0 5 517 1 500 1 501 1 502 1 503 1
496 0 5 517 1 500 1 501 1 502 1 503 1
497 0 5 517 1 500 1 501 1 502 1 503 1
498 0 5 517 1 500 1 501 1 502 1 503 1
499 0 5 517 1 500 1 501 1 502 1 503 1
500 0 5 517 1 500 1 501 1 502 1 503 1
501 0 5 517 1 500 1 501 1 502 1 503 1
502 0 5 517 1 500 1 501 1 502 1 503 1
503 0 5 517 1 500 1 501 1 502 1 503 1
504 0 5 517 1 500 1 501 1 502 1 503 1
505 0 5 517 1 500 1 501 1 502 1 503 1
506 0 5 517 1 500 1 501 1 502 1 503 1
507 0 5 517 1 500 1 501 1 502 1 503 1
508 0 5 517 1 500 1 501 1 502 1 503 1
509 0 5 517 1 500 1 501 1 502 1 503 1
510 0 5 517 1 500 1 501 1 502 1 503 1
511 0 5 517 1 500 1 501 1 502 1 503 1
512 0 5 517 1 500 1 501 1 502 1 503 1
513 0 5 517 1 500 1 501 1 502 1 503 1
514 0 5 517 1 500 1 501 1 502 1 503 1
515 0 5 517 1 500 1 501 1 502 1 503 1
516 0 5 517 1 500 1 501 1 502 1 503 1
517 0 5 517 1 500 1 501 1 502 1 503 1
518 0 5 517 1 500 1 501 1 502 1 503 1
519 0 5 517 1 500 1 501 1 502 1 503 1
520 0 5 517 1 500 1 501 1 502 1 503 1
521 0 5 517 1 500 1 501 1 502 1 503 1
522 0 5 517 1 500 1 501 1 502 1 503 1
523 0 5 517 1 500 1 501 1 502 1 503 1
524 0 5 517 1 500 1 501 1 502 1 503 1
525 0 5 517 1 500 1 501 1 502 1 503 1
526 0 5 517 1 500 1 501 1 502 1 503 1
527 0 5 517 1 500 1 501 1 502 1 503 1
528 0 5 517 1 500 1 501 1 502 1 503 1
529 0 5 517 1 500 1 501 1 502 1 503 1
530 0 5 517 1 500 1 501 1 502 1 503 1
531 0 5 517 1 500 1 501 1 502 1 503 1
532 0 5 517 1 500 1 501 1 502 1 503 1
533 0 5 517 1 500 1 501 1 502 1 503 1
534 0 5 517 1 500 1 501 1 502 1 503 1
535 0 5 517 1 500 1 501 1 502 1 503 1
536 0 5 517 1 500 1 501 1 502 1 503 1
537 0 5 517 1 500 1 501 1 502 1 503 1
538 0 5 517 1 500 1 501 1 502 1 503 1
539 0 5 517 1 500 1 501 1 502 1 503 1
540 0 5 517 1 500 1 501 1 502 1 503 1
541 0 5 517 1 500 1 501 1 502 1 503 1
542 0 5 517 1 500 1 501 1 502 1 503 1
543 0 5 517 1 500 1 501 1 502 1 503 1
544 0 5 517 1 500 1 501 1 502 1 503 1
545 0 5 517 1 500 1 501 1 502 1 503 1
546 0 5 517 1 500 1 501 1 502 1 503 1
547 0 5 517 1 500 1 501 1 502 1 503 1
548 0 5 517 1 500 1 501 1 502 1 503 1
549 0 5 517 1 500 1 501 1 502 1 503 1
-1
EOF
